
Gurobi 11.0.3 (win64) logging started Sun Nov  3 16:34:47 2024

Set parameter LogFile to value "gurobi_log.txt"
Gurobi Optimizer version 11.0.3 build v11.0.3rc0 (win64 - Windows 11.0 (22631.2))

CPU model: AMD Ryzen 7 5825U with Radeon Graphics, instruction set [SSE2|AVX|AVX2]
Thread count: 8 physical cores, 16 logical processors, using up to 16 threads

Optimize a model with 25 rows, 30 columns and 60 nonzeros
Model fingerprint: 0x79c3a131
Variable types: 0 continuous, 30 integer (15 binary)
Coefficient statistics:
  Matrix range     [1e+00, 1e+03]
  Objective range  [2e+02, 3e+02]
  Bounds range     [1e+00, 1e+00]
  RHS range        [3e+03, 9e+04]
Presolve removed 23 rows and 27 columns
Presolve time: 0.01s
Presolved: 2 rows, 3 columns, 6 nonzeros
Variable types: 0 continuous, 3 integer (0 binary)
Found heuristic solution: objective 926741.20550
Found heuristic solution: objective 926640.35700
Found heuristic solution: objective 906135.69050

Root relaxation: objective 9.016132e+05, 0 iterations, 0.00 seconds (0.00 work units)

    Nodes    |    Current Node    |     Objective Bounds      |     Work
 Expl Unexpl |  Obj  Depth IntInf | Incumbent    BestBd   Gap | It/Node Time

     0     0 901613.163    0    1 906135.691 901613.163  0.50%     -    0s
H    0     0                    901714.41550 901613.163  0.01%     -    0s
H    0     0                    901663.41050 901613.163  0.01%     -    0s

Explored 1 nodes (0 simplex iterations) in 0.03 seconds (0.00 work units)
Thread count was 16 (of 16 available processors)

Solution count 5: 901663 901714 906136 ... 926741

Optimal solution found (tolerance 1.00e-04)
Best objective 9.016634105000e+05, best bound 9.016131630000e+05, gap 0.0056%
